101
38
84
422
424
431
437
439
443
450
490
598
653
654
733
746
747
991
1013
1041
1100
1123
1139
1191
1265
1275
1287
1310
1311
1390
1392
1418
1433
1555
1558
1567
1571
1586
1588
1589
1591
1602
1644
1645
1737
1738
1739
1823
1883
1886
2013
2045
2057
2248
2315
2316
2433
2436
2437
2536
2538
2550
2603
2733
2754
2823
2866
2881
2883
2886
2900
2960
3032
3040
3316
3434
3437
3567
3590
3591
3592
3603
3621
3625
3626
3628
3678
3747
3775
3776
3788
3789
3791
3810
3811
3878
3989
3995
4181
4182
4184
4335